problems/csplib-prob056/sonet-models/noch/O2/lingeling/model_4_1-s3ring01-solution000001.solution
language Essence 1.3

letting network be mset({}, {}, {1, 4, 5, 9}, {1, 6, 7, 11, 13}, {2, 3, 7}, {3, 6, 9, 10, 12}, {5, 7, 8, 9, 13})
$ Here is a simple "visualisation" for the value above.
$ 
$ 
$  1  4  5  9
$  1  6  7 11 13
$  2  3  7
$  3  6  9 10 12
$  5  7  8  9 13

